435 426
465 476
495 506
525 536
555 566
585 596
615 626
645 656
675 686
705 716
735 746
765 776
795 806
825 836
855 866
885 896
915 926
945 956
975 986
1005 1016
1035 1046
1065 1076
1095 1106
1125 1136
1155 1166
1185 1196
1215 1226
1245 1256
1275 1286
1305 1316
1335 1346
1365 1376
1395 1406
1425 1436
1455 1466
1485 1496